c 
p cnf 10 40
-10 1 0
-2 -10 -8 7 0
8 -3 -10 9 0
-2 8 0
4 6 0
10 -9 8 0
8 -10 0
10 -4 0
2 -3 0
-5 0
8 0
7 -1 8 0
3 -5 0
-2 -3 0
1 0
-2 0
2 3 6 0
1 6 3 5 -10 0
6 8 -10 0
1 -5 -6 -7 -9 0
-2 7 -8 9 0
3 -8 -10 -5 0
6 1 -2 3 0
-4 0
4 6 1 10 0
-5 -8 0
5 1 -7 3 0
7 6 0
10 0
5 8 6 2 0
-10 7 6 -4 9 0
-4 0
-1 3 8 -10 0
-7 2 -9 0
-7 -10 -2 -9 1 0
-6 3 9 0
-4 3 -10 -2 0
-1 3 0
8 0
-3 6 7 9 0
